
%FILE DATA:	Soccer Computational Problem for MiniZinc Models	%
%AUTHOR:	Jack Wall	%
%CONTACT:  	116397063@umail.ucc.ie			%
%LAST UPDATE:	03/09/2020, 15:15:29						%
%DESCRIPTION: 	96 games played with 36 games left				%


n=12; %number of teams

%Games to play
games=[|9,6|1,4|10,11|7,12|5,3|12,11|5,12|11,4|8,11|9,8|8,9|5,10|8,2|4,5|6,10|3,7|2,4|10,1|12,7|4,6|10,12|11,5|8,3|2,8|3,10|6,4|4,11|10,2|2,7|7,2|7,4|10,8|9,12|12,2|7,10|8,1|];

%Initial points
iPoints=[27,13,19,27,20,33,12,19,27,6,27,25];

%POSITION CONSTRAINTS
% [|teamID, operator, position|...]
% operators index:
%  1 for =  operator
%  2 for >  operator
%  3 for >= operator
%  4 for <  operator
%  5 for <= operator
positionConstraints=[|6,5,1|4,3,2|11,4,4|9,5,4|12,2,4|];